units real
#processors 2 * *
atom_modify map yes
region box block -5 5 -5 5 -5 5
create_box 1 box
create_atoms 1 single -2.5 0.0 0.0
create_atoms 1 single  2.5 0.0 0.0
mass 1 1.0

pair_style zero 4.0
pair_coeff 1 1

reset_timestep $(2.14e9)

fix 1 all nve
fix 2 all colvars bigint.colvars

thermo 2000000

run 2000000000
